unknown
(model
; cardinality of BoundSet is 1
(declare-sort BoundSet 0)
; rep: @uc_BoundSet_0
(declare-sort UnboundSet 0)
(define-fun IsThreatened ((BOUND_VARIABLE_321 BoundSet)) Bool true)
(define-fun MustAddress ((BOUND_VARIABLE_321 BoundSet)) Bool false)
)
